NAME : amz2209.152529_124029.tour
COMMENT : Cost = 152529_124029
COMMENT : Found by LKH-AMZ [Keld Helsgaun] Sun May 11 15:09:28 2025
COMMENT : TW viol.: 0 #: 0
TYPE : TOUR
DIMENSION : 150
TOUR_SECTION
107
39
18
24
149
54
44
35
51
74
77
14
134
71
100
17
26
11
92
150
8
93
105
62
101
144
97
114
98
140
40
5
30
52
126
45
109
33
70
102
2
115
12
57
147
68
141
22
47
56
28
83
7
108
29
69
38
41
112
19
48
63
16
129
138
113
67
85
9
128
148
95
53
131
94
146
15
23
103
116
99
13
145
55
65
123
31
82
78
96
120
110
122
46
61
36
135
132
20
142
117
60
139
3
111
104
64
88
136
32
42
75
27
84
130
119
80
106
1
10
143
6
34
90
25
89
125
121
137
118
124
37
50
133
49
73
127
76
21
43
66
91
58
59
72
86
4
79
81
87
-1
EOF
